Minimize
 obj: 0 X_0_1
Subject To
 out_0:
  + 1 X_0_1 + 1 X_0_2 + 1 X_0_3 + 1 X_0_4 + 1 X_0_5 + 1 X_0_6 + 1 X_0_7 + 1 X_0_8
  + 1 X_0_9 + 1 X_0_10 + 1 X_0_11 + 1 X_0_12 + 1 X_0_13 + 1 X_0_14
  = 1
 in_0:
  + 1 X_1_0 + 1 X_2_0 + 1 X_3_0 + 1 X_4_0 + 1 X_5_0 + 1 X_6_0 + 1 X_7_0 + 1 X_8_0
  + 1 X_9_0 + 1 X_10_0 + 1 X_11_0 + 1 X_12_0 + 1 X_13_0 + 1 X_14_0
  = 1
 out_1:
  + 1 X_1_0 + 1 X_1_2 + 1 X_1_3 + 1 X_1_4 + 1 X_1_5 + 1 X_1_6 + 1 X_1_7 + 1 X_1_8
  + 1 X_1_9 + 1 X_1_10 + 1 X_1_11 + 1 X_1_12 + 1 X_1_13 + 1 X_1_14
  = 1
 in_1:
  + 1 X_0_1 + 1 X_2_1 + 1 X_3_1 + 1 X_4_1 + 1 X_5_1 + 1 X_6_1 + 1 X_7_1 + 1 X_8_1
  + 1 X_9_1 + 1 X_10_1 + 1 X_11_1 + 1 X_12_1 + 1 X_13_1 + 1 X_14_1
  = 1
 out_2:
  + 1 X_2_0 + 1 X_2_1 + 1 X_2_3 + 1 X_2_4 + 1 X_2_5 + 1 X_2_6 + 1 X_2_7 + 1 X_2_8
  + 1 X_2_9 + 1 X_2_10 + 1 X_2_11 + 1 X_2_12 + 1 X_2_13 + 1 X_2_14
  = 1
 in_2:
  + 1 X_0_2 + 1 X_1_2 + 1 X_3_2 + 1 X_4_2 + 1 X_5_2 + 1 X_6_2 + 1 X_7_2 + 1 X_8_2
  + 1 X_9_2 + 1 X_10_2 + 1 X_11_2 + 1 X_12_2 + 1 X_13_2 + 1 X_14_2
  = 1
 out_3:
  + 1 X_3_0 + 1 X_3_1 + 1 X_3_2 + 1 X_3_4 + 1 X_3_5 + 1 X_3_6 + 1 X_3_7 + 1 X_3_8
  + 1 X_3_9 + 1 X_3_10 + 1 X_3_11 + 1 X_3_12 + 1 X_3_13 + 1 X_3_14
  = 1
 in_3:
  + 1 X_0_3 + 1 X_1_3 + 1 X_2_3 + 1 X_4_3 + 1 X_5_3 + 1 X_6_3 + 1 X_7_3 + 1 X_8_3
  + 1 X_9_3 + 1 X_10_3 + 1 X_11_3 + 1 X_12_3 + 1 X_13_3 + 1 X_14_3
  = 1
 out_4:
  + 1 X_4_0 + 1 X_4_1 + 1 X_4_2 + 1 X_4_3 + 1 X_4_5 + 1 X_4_6 + 1 X_4_7 + 1 X_4_8
  + 1 X_4_9 + 1 X_4_10 + 1 X_4_11 + 1 X_4_12 + 1 X_4_13 + 1 X_4_14
  = 1
 in_4:
  + 1 X_0_4 + 1 X_1_4 + 1 X_2_4 + 1 X_3_4 + 1 X_5_4 + 1 X_6_4 + 1 X_7_4 + 1 X_8_4
  + 1 X_9_4 + 1 X_10_4 + 1 X_11_4 + 1 X_12_4 + 1 X_13_4 + 1 X_14_4
  = 1
 out_5:
  + 1 X_5_0 + 1 X_5_1 + 1 X_5_2 + 1 X_5_3 + 1 X_5_4 + 1 X_5_6 + 1 X_5_7 + 1 X_5_8
  + 1 X_5_9 + 1 X_5_10 + 1 X_5_11 + 1 X_5_12 + 1 X_5_13 + 1 X_5_14
  = 1
 in_5:
  + 1 X_0_5 + 1 X_1_5 + 1 X_2_5 + 1 X_3_5 + 1 X_4_5 + 1 X_6_5 + 1 X_7_5 + 1 X_8_5
  + 1 X_9_5 + 1 X_10_5 + 1 X_11_5 + 1 X_12_5 + 1 X_13_5 + 1 X_14_5
  = 1
 out_6:
  + 1 X_6_0 + 1 X_6_1 + 1 X_6_2 + 1 X_6_3 + 1 X_6_4 + 1 X_6_5 + 1 X_6_7 + 1 X_6_8
  + 1 X_6_9 + 1 X_6_10 + 1 X_6_11 + 1 X_6_12 + 1 X_6_13 + 1 X_6_14
  = 1
 in_6:
  + 1 X_0_6 + 1 X_1_6 + 1 X_2_6 + 1 X_3_6 + 1 X_4_6 + 1 X_5_6 + 1 X_7_6 + 1 X_8_6
  + 1 X_9_6 + 1 X_10_6 + 1 X_11_6 + 1 X_12_6 + 1 X_13_6 + 1 X_14_6
  = 1
 out_7:
  + 1 X_7_0 + 1 X_7_1 + 1 X_7_2 + 1 X_7_3 + 1 X_7_4 + 1 X_7_5 + 1 X_7_6 + 1 X_7_8
  + 1 X_7_9 + 1 X_7_10 + 1 X_7_11 + 1 X_7_12 + 1 X_7_13 + 1 X_7_14
  = 1
 in_7:
  + 1 X_0_7 + 1 X_1_7 + 1 X_2_7 + 1 X_3_7 + 1 X_4_7 + 1 X_5_7 + 1 X_6_7 + 1 X_8_7
  + 1 X_9_7 + 1 X_10_7 + 1 X_11_7 + 1 X_12_7 + 1 X_13_7 + 1 X_14_7
  = 1
 out_8:
  + 1 X_8_0 + 1 X_8_1 + 1 X_8_2 + 1 X_8_3 + 1 X_8_4 + 1 X_8_5 + 1 X_8_6 + 1 X_8_7
  + 1 X_8_9 + 1 X_8_10 + 1 X_8_11 + 1 X_8_12 + 1 X_8_13 + 1 X_8_14
  = 1
 in_8:
  + 1 X_0_8 + 1 X_1_8 + 1 X_2_8 + 1 X_3_8 + 1 X_4_8 + 1 X_5_8 + 1 X_6_8 + 1 X_7_8
  + 1 X_9_8 + 1 X_10_8 + 1 X_11_8 + 1 X_12_8 + 1 X_13_8 + 1 X_14_8
  = 1
 out_9:
  + 1 X_9_0 + 1 X_9_1 + 1 X_9_2 + 1 X_9_3 + 1 X_9_4 + 1 X_9_5 + 1 X_9_6 + 1 X_9_7
  + 1 X_9_8 + 1 X_9_10 + 1 X_9_11 + 1 X_9_12 + 1 X_9_13 + 1 X_9_14
  = 1
 in_9:
  + 1 X_0_9 + 1 X_1_9 + 1 X_2_9 + 1 X_3_9 + 1 X_4_9 + 1 X_5_9 + 1 X_6_9 + 1 X_7_9
  + 1 X_8_9 + 1 X_10_9 + 1 X_11_9 + 1 X_12_9 + 1 X_13_9 + 1 X_14_9
  = 1
 out_10:
  + 1 X_10_0 + 1 X_10_1 + 1 X_10_2 + 1 X_10_3 + 1 X_10_4 + 1 X_10_5 + 1 X_10_6 + 1 X_10_7
  + 1 X_10_8 + 1 X_10_9 + 1 X_10_11 + 1 X_10_12 + 1 X_10_13 + 1 X_10_14
  = 1
 in_10:
  + 1 X_0_10 + 1 X_1_10 + 1 X_2_10 + 1 X_3_10 + 1 X_4_10 + 1 X_5_10 + 1 X_6_10 + 1 X_7_10
  + 1 X_8_10 + 1 X_9_10 + 1 X_11_10 + 1 X_12_10 + 1 X_13_10 + 1 X_14_10
  = 1
 out_11:
  + 1 X_11_0 + 1 X_11_1 + 1 X_11_2 + 1 X_11_3 + 1 X_11_4 + 1 X_11_5 + 1 X_11_6 + 1 X_11_7
  + 1 X_11_8 + 1 X_11_9 + 1 X_11_10 + 1 X_11_12 + 1 X_11_13 + 1 X_11_14
  = 1
 in_11:
  + 1 X_0_11 + 1 X_1_11 + 1 X_2_11 + 1 X_3_11 + 1 X_4_11 + 1 X_5_11 + 1 X_6_11 + 1 X_7_11
  + 1 X_8_11 + 1 X_9_11 + 1 X_10_11 + 1 X_12_11 + 1 X_13_11 + 1 X_14_11
  = 1
 out_12:
  + 1 X_12_0 + 1 X_12_1 + 1 X_12_2 + 1 X_12_3 + 1 X_12_4 + 1 X_12_5 + 1 X_12_6 + 1 X_12_7
  + 1 X_12_8 + 1 X_12_9 + 1 X_12_10 + 1 X_12_11 + 1 X_12_13 + 1 X_12_14
  = 1
 in_12:
  + 1 X_0_12 + 1 X_1_12 + 1 X_2_12 + 1 X_3_12 + 1 X_4_12 + 1 X_5_12 + 1 X_6_12 + 1 X_7_12
  + 1 X_8_12 + 1 X_9_12 + 1 X_10_12 + 1 X_11_12 + 1 X_13_12 + 1 X_14_12
  = 1
 out_13:
  + 1 X_13_0 + 1 X_13_1 + 1 X_13_2 + 1 X_13_3 + 1 X_13_4 + 1 X_13_5 + 1 X_13_6 + 1 X_13_7
  + 1 X_13_8 + 1 X_13_9 + 1 X_13_10 + 1 X_13_11 + 1 X_13_12 + 1 X_13_14
  = 1
 in_13:
  + 1 X_0_13 + 1 X_1_13 + 1 X_2_13 + 1 X_3_13 + 1 X_4_13 + 1 X_5_13 + 1 X_6_13 + 1 X_7_13
  + 1 X_8_13 + 1 X_9_13 + 1 X_10_13 + 1 X_11_13 + 1 X_12_13 + 1 X_14_13
  = 1
 out_14:
  + 1 X_14_0 + 1 X_14_1 + 1 X_14_2 + 1 X_14_3 + 1 X_14_4 + 1 X_14_5 + 1 X_14_6 + 1 X_14_7
  + 1 X_14_8 + 1 X_14_9 + 1 X_14_10 + 1 X_14_11 + 1 X_14_12 + 1 X_14_13
  = 1
 in_14:
  + 1 X_0_14 + 1 X_1_14 + 1 X_2_14 + 1 X_3_14 + 1 X_4_14 + 1 X_5_14 + 1 X_6_14 + 1 X_7_14
  + 1 X_8_14 + 1 X_9_14 + 1 X_10_14 + 1 X_11_14 + 1 X_12_14 + 1 X_13_14
  = 1
 mtz_1_2:
  + 1 U1 - 1 U2 + 14 X_1_2
  <= 13
 mtz_1_3:
  + 1 U1 - 1 U3 + 14 X_1_3
  <= 13
 mtz_1_4:
  + 1 U1 - 1 U4 + 14 X_1_4
  <= 13
 mtz_1_5:
  + 1 U1 - 1 U5 + 14 X_1_5
  <= 13
 mtz_1_6:
  + 1 U1 - 1 U6 + 14 X_1_6
  <= 13
 mtz_1_7:
  + 1 U1 - 1 U7 + 14 X_1_7
  <= 13
 mtz_1_8:
  + 1 U1 - 1 U8 + 14 X_1_8
  <= 13
 mtz_1_9:
  + 1 U1 - 1 U9 + 14 X_1_9
  <= 13
 mtz_1_10:
  + 1 U1 - 1 U10 + 14 X_1_10
  <= 13
 mtz_1_11:
  + 1 U1 - 1 U11 + 14 X_1_11
  <= 13
 mtz_1_12:
  + 1 U1 - 1 U12 + 14 X_1_12
  <= 13
 mtz_1_13:
  + 1 U1 - 1 U13 + 14 X_1_13
  <= 13
 mtz_1_14:
  + 1 U1 - 1 U14 + 14 X_1_14
  <= 13
 mtz_2_1:
  + 1 U2 - 1 U1 + 14 X_2_1
  <= 13
 mtz_2_3:
  + 1 U2 - 1 U3 + 14 X_2_3
  <= 13
 mtz_2_4:
  + 1 U2 - 1 U4 + 14 X_2_4
  <= 13
 mtz_2_5:
  + 1 U2 - 1 U5 + 14 X_2_5
  <= 13
 mtz_2_6:
  + 1 U2 - 1 U6 + 14 X_2_6
  <= 13
 mtz_2_7:
  + 1 U2 - 1 U7 + 14 X_2_7
  <= 13
 mtz_2_8:
  + 1 U2 - 1 U8 + 14 X_2_8
  <= 13
 mtz_2_9:
  + 1 U2 - 1 U9 + 14 X_2_9
  <= 13
 mtz_2_10:
  + 1 U2 - 1 U10 + 14 X_2_10
  <= 13
 mtz_2_11:
  + 1 U2 - 1 U11 + 14 X_2_11
  <= 13
 mtz_2_12:
  + 1 U2 - 1 U12 + 14 X_2_12
  <= 13
 mtz_2_13:
  + 1 U2 - 1 U13 + 14 X_2_13
  <= 13
 mtz_2_14:
  + 1 U2 - 1 U14 + 14 X_2_14
  <= 13
 mtz_3_1:
  + 1 U3 - 1 U1 + 14 X_3_1
  <= 13
 mtz_3_2:
  + 1 U3 - 1 U2 + 14 X_3_2
  <= 13
 mtz_3_4:
  + 1 U3 - 1 U4 + 14 X_3_4
  <= 13
 mtz_3_5:
  + 1 U3 - 1 U5 + 14 X_3_5
  <= 13
 mtz_3_6:
  + 1 U3 - 1 U6 + 14 X_3_6
  <= 13
 mtz_3_7:
  + 1 U3 - 1 U7 + 14 X_3_7
  <= 13
 mtz_3_8:
  + 1 U3 - 1 U8 + 14 X_3_8
  <= 13
 mtz_3_9:
  + 1 U3 - 1 U9 + 14 X_3_9
  <= 13
 mtz_3_10:
  + 1 U3 - 1 U10 + 14 X_3_10
  <= 13
 mtz_3_11:
  + 1 U3 - 1 U11 + 14 X_3_11
  <= 13
 mtz_3_12:
  + 1 U3 - 1 U12 + 14 X_3_12
  <= 13
 mtz_3_13:
  + 1 U3 - 1 U13 + 14 X_3_13
  <= 13
 mtz_3_14:
  + 1 U3 - 1 U14 + 14 X_3_14
  <= 13
 mtz_4_1:
  + 1 U4 - 1 U1 + 14 X_4_1
  <= 13
 mtz_4_2:
  + 1 U4 - 1 U2 + 14 X_4_2
  <= 13
 mtz_4_3:
  + 1 U4 - 1 U3 + 14 X_4_3
  <= 13
 mtz_4_5:
  + 1 U4 - 1 U5 + 14 X_4_5
  <= 13
 mtz_4_6:
  + 1 U4 - 1 U6 + 14 X_4_6
  <= 13
 mtz_4_7:
  + 1 U4 - 1 U7 + 14 X_4_7
  <= 13
 mtz_4_8:
  + 1 U4 - 1 U8 + 14 X_4_8
  <= 13
 mtz_4_9:
  + 1 U4 - 1 U9 + 14 X_4_9
  <= 13
 mtz_4_10:
  + 1 U4 - 1 U10 + 14 X_4_10
  <= 13
 mtz_4_11:
  + 1 U4 - 1 U11 + 14 X_4_11
  <= 13
 mtz_4_12:
  + 1 U4 - 1 U12 + 14 X_4_12
  <= 13
 mtz_4_13:
  + 1 U4 - 1 U13 + 14 X_4_13
  <= 13
 mtz_4_14:
  + 1 U4 - 1 U14 + 14 X_4_14
  <= 13
 mtz_5_1:
  + 1 U5 - 1 U1 + 14 X_5_1
  <= 13
 mtz_5_2:
  + 1 U5 - 1 U2 + 14 X_5_2
  <= 13
 mtz_5_3:
  + 1 U5 - 1 U3 + 14 X_5_3
  <= 13
 mtz_5_4:
  + 1 U5 - 1 U4 + 14 X_5_4
  <= 13
 mtz_5_6:
  + 1 U5 - 1 U6 + 14 X_5_6
  <= 13
 mtz_5_7:
  + 1 U5 - 1 U7 + 14 X_5_7
  <= 13
 mtz_5_8:
  + 1 U5 - 1 U8 + 14 X_5_8
  <= 13
 mtz_5_9:
  + 1 U5 - 1 U9 + 14 X_5_9
  <= 13
 mtz_5_10:
  + 1 U5 - 1 U10 + 14 X_5_10
  <= 13
 mtz_5_11:
  + 1 U5 - 1 U11 + 14 X_5_11
  <= 13
 mtz_5_12:
  + 1 U5 - 1 U12 + 14 X_5_12
  <= 13
 mtz_5_13:
  + 1 U5 - 1 U13 + 14 X_5_13
  <= 13
 mtz_5_14:
  + 1 U5 - 1 U14 + 14 X_5_14
  <= 13
 mtz_6_1:
  + 1 U6 - 1 U1 + 14 X_6_1
  <= 13
 mtz_6_2:
  + 1 U6 - 1 U2 + 14 X_6_2
  <= 13
 mtz_6_3:
  + 1 U6 - 1 U3 + 14 X_6_3
  <= 13
 mtz_6_4:
  + 1 U6 - 1 U4 + 14 X_6_4
  <= 13
 mtz_6_5:
  + 1 U6 - 1 U5 + 14 X_6_5
  <= 13
 mtz_6_7:
  + 1 U6 - 1 U7 + 14 X_6_7
  <= 13
 mtz_6_8:
  + 1 U6 - 1 U8 + 14 X_6_8
  <= 13
 mtz_6_9:
  + 1 U6 - 1 U9 + 14 X_6_9
  <= 13
 mtz_6_10:
  + 1 U6 - 1 U10 + 14 X_6_10
  <= 13
 mtz_6_11:
  + 1 U6 - 1 U11 + 14 X_6_11
  <= 13
 mtz_6_12:
  + 1 U6 - 1 U12 + 14 X_6_12
  <= 13
 mtz_6_13:
  + 1 U6 - 1 U13 + 14 X_6_13
  <= 13
 mtz_6_14:
  + 1 U6 - 1 U14 + 14 X_6_14
  <= 13
 mtz_7_1:
  + 1 U7 - 1 U1 + 14 X_7_1
  <= 13
 mtz_7_2:
  + 1 U7 - 1 U2 + 14 X_7_2
  <= 13
 mtz_7_3:
  + 1 U7 - 1 U3 + 14 X_7_3
  <= 13
 mtz_7_4:
  + 1 U7 - 1 U4 + 14 X_7_4
  <= 13
 mtz_7_5:
  + 1 U7 - 1 U5 + 14 X_7_5
  <= 13
 mtz_7_6:
  + 1 U7 - 1 U6 + 14 X_7_6
  <= 13
 mtz_7_8:
  + 1 U7 - 1 U8 + 14 X_7_8
  <= 13
 mtz_7_9:
  + 1 U7 - 1 U9 + 14 X_7_9
  <= 13
 mtz_7_10:
  + 1 U7 - 1 U10 + 14 X_7_10
  <= 13
 mtz_7_11:
  + 1 U7 - 1 U11 + 14 X_7_11
  <= 13
 mtz_7_12:
  + 1 U7 - 1 U12 + 14 X_7_12
  <= 13
 mtz_7_13:
  + 1 U7 - 1 U13 + 14 X_7_13
  <= 13
 mtz_7_14:
  + 1 U7 - 1 U14 + 14 X_7_14
  <= 13
 mtz_8_1:
  + 1 U8 - 1 U1 + 14 X_8_1
  <= 13
 mtz_8_2:
  + 1 U8 - 1 U2 + 14 X_8_2
  <= 13
 mtz_8_3:
  + 1 U8 - 1 U3 + 14 X_8_3
  <= 13
 mtz_8_4:
  + 1 U8 - 1 U4 + 14 X_8_4
  <= 13
 mtz_8_5:
  + 1 U8 - 1 U5 + 14 X_8_5
  <= 13
 mtz_8_6:
  + 1 U8 - 1 U6 + 14 X_8_6
  <= 13
 mtz_8_7:
  + 1 U8 - 1 U7 + 14 X_8_7
  <= 13
 mtz_8_9:
  + 1 U8 - 1 U9 + 14 X_8_9
  <= 13
 mtz_8_10:
  + 1 U8 - 1 U10 + 14 X_8_10
  <= 13
 mtz_8_11:
  + 1 U8 - 1 U11 + 14 X_8_11
  <= 13
 mtz_8_12:
  + 1 U8 - 1 U12 + 14 X_8_12
  <= 13
 mtz_8_13:
  + 1 U8 - 1 U13 + 14 X_8_13
  <= 13
 mtz_8_14:
  + 1 U8 - 1 U14 + 14 X_8_14
  <= 13
 mtz_9_1:
  + 1 U9 - 1 U1 + 14 X_9_1
  <= 13
 mtz_9_2:
  + 1 U9 - 1 U2 + 14 X_9_2
  <= 13
 mtz_9_3:
  + 1 U9 - 1 U3 + 14 X_9_3
  <= 13
 mtz_9_4:
  + 1 U9 - 1 U4 + 14 X_9_4
  <= 13
 mtz_9_5:
  + 1 U9 - 1 U5 + 14 X_9_5
  <= 13
 mtz_9_6:
  + 1 U9 - 1 U6 + 14 X_9_6
  <= 13
 mtz_9_7:
  + 1 U9 - 1 U7 + 14 X_9_7
  <= 13
 mtz_9_8:
  + 1 U9 - 1 U8 + 14 X_9_8
  <= 13
 mtz_9_10:
  + 1 U9 - 1 U10 + 14 X_9_10
  <= 13
 mtz_9_11:
  + 1 U9 - 1 U11 + 14 X_9_11
  <= 13
 mtz_9_12:
  + 1 U9 - 1 U12 + 14 X_9_12
  <= 13
 mtz_9_13:
  + 1 U9 - 1 U13 + 14 X_9_13
  <= 13
 mtz_9_14:
  + 1 U9 - 1 U14 + 14 X_9_14
  <= 13
 mtz_10_1:
  + 1 U10 - 1 U1 + 14 X_10_1
  <= 13
 mtz_10_2:
  + 1 U10 - 1 U2 + 14 X_10_2
  <= 13
 mtz_10_3:
  + 1 U10 - 1 U3 + 14 X_10_3
  <= 13
 mtz_10_4:
  + 1 U10 - 1 U4 + 14 X_10_4
  <= 13
 mtz_10_5:
  + 1 U10 - 1 U5 + 14 X_10_5
  <= 13
 mtz_10_6:
  + 1 U10 - 1 U6 + 14 X_10_6
  <= 13
 mtz_10_7:
  + 1 U10 - 1 U7 + 14 X_10_7
  <= 13
 mtz_10_8:
  + 1 U10 - 1 U8 + 14 X_10_8
  <= 13
 mtz_10_9:
  + 1 U10 - 1 U9 + 14 X_10_9
  <= 13
 mtz_10_11:
  + 1 U10 - 1 U11 + 14 X_10_11
  <= 13
 mtz_10_12:
  + 1 U10 - 1 U12 + 14 X_10_12
  <= 13
 mtz_10_13:
  + 1 U10 - 1 U13 + 14 X_10_13
  <= 13
 mtz_10_14:
  + 1 U10 - 1 U14 + 14 X_10_14
  <= 13
 mtz_11_1:
  + 1 U11 - 1 U1 + 14 X_11_1
  <= 13
 mtz_11_2:
  + 1 U11 - 1 U2 + 14 X_11_2
  <= 13
 mtz_11_3:
  + 1 U11 - 1 U3 + 14 X_11_3
  <= 13
 mtz_11_4:
  + 1 U11 - 1 U4 + 14 X_11_4
  <= 13
 mtz_11_5:
  + 1 U11 - 1 U5 + 14 X_11_5
  <= 13
 mtz_11_6:
  + 1 U11 - 1 U6 + 14 X_11_6
  <= 13
 mtz_11_7:
  + 1 U11 - 1 U7 + 14 X_11_7
  <= 13
 mtz_11_8:
  + 1 U11 - 1 U8 + 14 X_11_8
  <= 13
 mtz_11_9:
  + 1 U11 - 1 U9 + 14 X_11_9
  <= 13
 mtz_11_10:
  + 1 U11 - 1 U10 + 14 X_11_10
  <= 13
 mtz_11_12:
  + 1 U11 - 1 U12 + 14 X_11_12
  <= 13
 mtz_11_13:
  + 1 U11 - 1 U13 + 14 X_11_13
  <= 13
 mtz_11_14:
  + 1 U11 - 1 U14 + 14 X_11_14
  <= 13
 mtz_12_1:
  + 1 U12 - 1 U1 + 14 X_12_1
  <= 13
 mtz_12_2:
  + 1 U12 - 1 U2 + 14 X_12_2
  <= 13
 mtz_12_3:
  + 1 U12 - 1 U3 + 14 X_12_3
  <= 13
 mtz_12_4:
  + 1 U12 - 1 U4 + 14 X_12_4
  <= 13
 mtz_12_5:
  + 1 U12 - 1 U5 + 14 X_12_5
  <= 13
 mtz_12_6:
  + 1 U12 - 1 U6 + 14 X_12_6
  <= 13
 mtz_12_7:
  + 1 U12 - 1 U7 + 14 X_12_7
  <= 13
 mtz_12_8:
  + 1 U12 - 1 U8 + 14 X_12_8
  <= 13
 mtz_12_9:
  + 1 U12 - 1 U9 + 14 X_12_9
  <= 13
 mtz_12_10:
  + 1 U12 - 1 U10 + 14 X_12_10
  <= 13
 mtz_12_11:
  + 1 U12 - 1 U11 + 14 X_12_11
  <= 13
 mtz_12_13:
  + 1 U12 - 1 U13 + 14 X_12_13
  <= 13
 mtz_12_14:
  + 1 U12 - 1 U14 + 14 X_12_14
  <= 13
 mtz_13_1:
  + 1 U13 - 1 U1 + 14 X_13_1
  <= 13
 mtz_13_2:
  + 1 U13 - 1 U2 + 14 X_13_2
  <= 13
 mtz_13_3:
  + 1 U13 - 1 U3 + 14 X_13_3
  <= 13
 mtz_13_4:
  + 1 U13 - 1 U4 + 14 X_13_4
  <= 13
 mtz_13_5:
  + 1 U13 - 1 U5 + 14 X_13_5
  <= 13
 mtz_13_6:
  + 1 U13 - 1 U6 + 14 X_13_6
  <= 13
 mtz_13_7:
  + 1 U13 - 1 U7 + 14 X_13_7
  <= 13
 mtz_13_8:
  + 1 U13 - 1 U8 + 14 X_13_8
  <= 13
 mtz_13_9:
  + 1 U13 - 1 U9 + 14 X_13_9
  <= 13
 mtz_13_10:
  + 1 U13 - 1 U10 + 14 X_13_10
  <= 13
 mtz_13_11:
  + 1 U13 - 1 U11 + 14 X_13_11
  <= 13
 mtz_13_12:
  + 1 U13 - 1 U12 + 14 X_13_12
  <= 13
 mtz_13_14:
  + 1 U13 - 1 U14 + 14 X_13_14
  <= 13
 mtz_14_1:
  + 1 U14 - 1 U1 + 14 X_14_1
  <= 13
 mtz_14_2:
  + 1 U14 - 1 U2 + 14 X_14_2
  <= 13
 mtz_14_3:
  + 1 U14 - 1 U3 + 14 X_14_3
  <= 13
 mtz_14_4:
  + 1 U14 - 1 U4 + 14 X_14_4
  <= 13
 mtz_14_5:
  + 1 U14 - 1 U5 + 14 X_14_5
  <= 13
 mtz_14_6:
  + 1 U14 - 1 U6 + 14 X_14_6
  <= 13
 mtz_14_7:
  + 1 U14 - 1 U7 + 14 X_14_7
  <= 13
 mtz_14_8:
  + 1 U14 - 1 U8 + 14 X_14_8
  <= 13
 mtz_14_9:
  + 1 U14 - 1 U9 + 14 X_14_9
  <= 13
 mtz_14_10:
  + 1 U14 - 1 U10 + 14 X_14_10
  <= 13
 mtz_14_11:
  + 1 U14 - 1 U11 + 14 X_14_11
  <= 13
 mtz_14_12:
  + 1 U14 - 1 U12 + 14 X_14_12
  <= 13
 mtz_14_13:
  + 1 U14 - 1 U13 + 14 X_14_13
  <= 13
 obj1:
  + 731 X_0_1 + 594 X_0_2 + 295 X_0_3 + 494 X_0_4 + 419 X_0_5 + 579 X_0_6 + 675 X_0_7 + 159 X_0_8
  + 47 X_0_9 + 479 X_0_10 + 497 X_0_11 + 324 X_0_12 + 382 X_0_13 + 146 X_0_14 + 731 X_1_0 + 687 X_1_2
  + 1026 X_1_3 + 490 X_1_4 + 946 X_1_5 + 833 X_1_6 + 594 X_1_7 + 839 X_1_8 + 778 X_1_9 + 946 X_1_10
  + 714 X_1_11 + 570 X_1_12 + 412 X_1_13 + 874 X_1_14 + 594 X_2_0 + 687 X_2_1 + 773 X_2_3 + 210 X_2_4
  + 1008 X_2_5 + 1101 X_2_6 + 1048 X_2_7 + 751 X_2_8 + 620 X_2_9 + 1061 X_2_10 + 114 X_2_11 + 768 X_2_12
  + 681 X_2_13 + 699 X_2_14 + 295 X_3_0 + 1026 X_3_1 + 773 X_3_2 + 736 X_3_4 + 441 X_3_5 + 710 X_3_6
  + 899 X_3_7 + 236 X_3_8 + 248 X_3_9 + 522 X_3_10 + 660 X_3_11 + 569 X_3_12 + 665 X_3_13 + 157 X_3_14
  + 494 X_4_0 + 490 X_4_1 + 210 X_4_2 + 736 X_4_3 + 881 X_4_5 + 930 X_4_6 + 847 X_4_7 + 651 X_4_8
  + 531 X_4_9 + 922 X_4_10 + 225 X_4_11 + 592 X_4_12 + 486 X_4_13 + 626 X_4_14 + 419 X_5_0 + 946 X_5_1
  + 1008 X_5_2 + 441 X_5_3 + 881 X_5_4 + 298 X_5_6 + 574 X_5_7 + 276 X_5_8 + 405 X_5_9 + 81 X_5_10
  + 916 X_5_11 + 376 X_5_12 + 534 X_5_13 + 367 X_5_14 + 579 X_6_0 + 833 X_6_1 + 1101 X_6_2 + 710 X_6_3
  + 930 X_6_4 + 298 X_6_5 + 319 X_6_7 + 494 X_6_8 + 589 X_6_9 + 229 X_6_10 + 1031 X_6_11 + 338 X_6_12
  + 470 X_6_13 + 596 X_6_14 + 675 X_7_0 + 594 X_7_1 + 1048 X_7_2 + 899 X_7_3 + 847 X_7_4 + 574 X_7_5
  + 319 X_7_6 + 662 X_7_8 + 704 X_7_9 + 526 X_7_10 + 1008 X_7_11 + 350 X_7_12 + 369 X_7_13 + 754 X_7_14
  + 159 X_8_0 + 839 X_8_1 + 751 X_8_2 + 236 X_8_3 + 651 X_8_4 + 276 X_8_5 + 494 X_8_6 + 662 X_8_7
  + 132 X_8_9 + 347 X_8_10 + 651 X_8_11 + 336 X_8_12 + 450 X_8_13 + 102 X_8_14 + 47 X_9_0 + 778 X_9_1
  + 620 X_9_2 + 248 X_9_3 + 531 X_9_4 + 405 X_9_5 + 589 X_9_6 + 704 X_9_7 + 132 X_9_8 + 471 X_9_10
  + 519 X_9_11 + 356 X_9_12 + 425 X_9_13 + 100 X_9_14 + 479 X_10_0 + 946 X_10_1 + 1061 X_10_2 + 522 X_10_3
  + 922 X_10_4 + 81 X_10_5 + 229 X_10_6 + 526 X_10_7 + 347 X_10_8 + 471 X_10_9 + 973 X_10_11 + 380 X_10_12
  + 540 X_10_13 + 442 X_10_14 + 497 X_11_0 + 714 X_11_1 + 114 X_11_2 + 660 X_11_3 + 225 X_11_4 + 916 X_11_5
  + 1031 X_11_6 + 1008 X_11_7 + 651 X_11_8 + 519 X_11_9 + 973 X_11_10 + 705 X_11_12 + 639 X_11_13 + 593 X_11_14
  + 324 X_12_0 + 570 X_12_1 + 768 X_12_2 + 569 X_12_3 + 592 X_12_4 + 376 X_12_5 + 338 X_12_6 + 350 X_12_7
  + 336 X_12_8 + 356 X_12_9 + 380 X_12_10 + 705 X_12_11 + 159 X_12_13 + 415 X_12_14 + 382 X_13_0 + 412 X_13_1
  + 681 X_13_2 + 665 X_13_3 + 486 X_13_4 + 534 X_13_5 + 470 X_13_6 + 369 X_13_7 + 450 X_13_8 + 425 X_13_9
  + 540 X_13_10 + 639 X_13_11 + 159 X_13_12 + 508 X_13_14 + 146 X_14_0 + 874 X_14_1 + 699 X_14_2 + 157 X_14_3
  + 626 X_14_4 + 367 X_14_5 + 596 X_14_6 + 754 X_14_7 + 102 X_14_8 + 100 X_14_9 + 442 X_14_10 + 593 X_14_11
  + 415 X_14_12 + 508 X_14_13
  <= 1
 obj2:
  + 294 X_0_1 + 800 X_0_2 + 535 X_0_3 + 492 X_0_4 + 294 X_0_5 + 483 X_0_6 + 511 X_0_7 + 417 X_0_8
  + 508 X_0_9 + 817 X_0_10 + 607 X_0_11 + 223 X_0_12 + 874 X_0_13 + 734 X_0_14 + 294 X_1_0 + 612 X_1_2
  + 292 X_1_3 + 241 X_1_4 + 95 X_1_5 + 326 X_1_6 + 387 X_1_7 + 648 X_1_8 + 292 X_1_9 + 543 X_1_10
  + 365 X_1_11 + 110 X_1_12 + 811 X_1_13 + 449 X_1_14 + 800 X_2_0 + 612 X_2_1 + 332 X_2_3 + 381 X_2_4
  + 541 X_2_5 + 317 X_2_6 + 299 X_2_7 + 896 X_2_8 + 320 X_2_9 + 346 X_2_10 + 272 X_2_11 + 717 X_2_12
  + 389 X_2_13 + 414 X_2_14 + 535 X_3_0 + 292 X_3_1 + 332 X_3_2 + 51 X_3_4 + 243 X_3_5 + 161 X_3_6
  + 225 X_3_7 + 767 X_3_8 + 58 X_3_9 + 294 X_3_10 + 74 X_3_11 + 401 X_3_12 + 614 X_3_13 + 247 X_3_14
  + 492 X_4_0 + 241 X_4_1 + 381 X_4_2 + 51 X_4_3 + 198 X_4_5 + 173 X_4_6 + 241 X_4_7 + 745 X_4_8
  + 78 X_4_9 + 328 X_4_10 + 124 X_4_11 + 351 X_4_12 + 648 X_4_13 + 265 X_4_14 + 294 X_5_0 + 95 X_5_1
  + 541 X_5_2 + 243 X_5_3 + 198 X_5_4 + 240 X_5_6 + 296 X_5_7 + 594 X_5_8 + 227 X_5_9 + 523 X_5_10
  + 317 X_5_11 + 179 X_5_12 + 718 X_5_13 + 445 X_5_14 + 483 X_6_0 + 326 X_6_1 + 317 X_6_2 + 161 X_6_3
  + 173 X_6_4 + 240 X_6_5 + 70 X_6_7 + 634 X_6_8 + 103 X_6_9 + 427 X_6_10 + 192 X_6_11 + 419 X_6_12
  + 492 X_6_13 + 403 X_6_14 + 511 X_7_0 + 387 X_7_1 + 299 X_7_2 + 225 X_7_3 + 241 X_7_4 + 296 X_7_5
  + 70 X_7_6 + 613 X_7_8 + 168 X_7_9 + 468 X_7_10 + 241 X_7_11 + 474 X_7_12 + 426 X_7_13 + 457 X_7_14
  + 417 X_8_0 + 648 X_8_1 + 896 X_8_2 + 767 X_8_3 + 745 X_8_4 + 594 X_8_5 + 634 X_8_6 + 613 X_8_7
  + 716 X_8_9 + 1057 X_8_10 + 820 X_8_11 + 620 X_8_12 + 776 X_8_13 + 1010 X_8_14 + 508 X_9_0 + 292 X_9_1
  + 320 X_9_2 + 58 X_9_3 + 78 X_9_4 + 227 X_9_5 + 103 X_9_6 + 168 X_9_7 + 716 X_9_8 + 340 X_9_10
  + 105 X_9_11 + 398 X_9_12 + 570 X_9_13 + 303 X_9_14 + 817 X_10_0 + 543 X_10_1 + 346 X_10_2 + 294 X_10_3
  + 328 X_10_4 + 523 X_10_5 + 427 X_10_6 + 468 X_10_7 + 1057 X_10_8 + 340 X_10_9 + 236 X_10_11 + 650 X_10_12
  + 731 X_10_13 + 118 X_10_14 + 607 X_11_0 + 365 X_11_1 + 272 X_11_2 + 74 X_11_3 + 124 X_11_4 + 317 X_11_5
  + 192 X_11_6 + 241 X_11_7 + 820 X_11_8 + 105 X_11_9 + 236 X_11_10 + 475 X_11_12 + 589 X_11_13 + 216 X_11_14
  + 223 X_12_0 + 110 X_12_1 + 717 X_12_2 + 401 X_12_3 + 351 X_12_4 + 179 X_12_5 + 419 X_12_6 + 474 X_12_7
  + 620 X_12_8 + 398 X_12_9 + 650 X_12_10 + 475 X_12_11 + 890 X_12_13 + 551 X_12_14 + 874 X_13_0 + 811 X_13_1
  + 389 X_13_2 + 614 X_13_3 + 648 X_13_4 + 718 X_13_5 + 492 X_13_6 + 426 X_13_7 + 776 X_13_8 + 570 X_13_9
  + 731 X_13_10 + 589 X_13_11 + 890 X_13_12 + 781 X_13_14 + 734 X_14_0 + 449 X_14_1 + 414 X_14_2 + 247 X_14_3
  + 265 X_14_4 + 445 X_14_5 + 403 X_14_6 + 457 X_14_7 + 1010 X_14_8 + 303 X_14_9 + 118 X_14_10 + 216 X_14_11
  + 551 X_14_12 + 781 X_14_13
  <= 2
 obj3:
  + 47 X_0_1 + 188 X_0_2 + 495 X_0_3 + 865 X_0_4 + 839 X_0_5 + 843 X_0_6 + 710 X_0_7 + 930 X_0_8
  + 658 X_0_9 + 642 X_0_10 + 28 X_0_11 + 686 X_0_12 + 190 X_0_13 + 688 X_0_14 + 47 X_1_0 + 160 X_1_2
  + 484 X_1_3 + 824 X_1_4 + 823 X_1_5 + 795 X_1_6 + 668 X_1_7 + 888 X_1_8 + 642 X_1_9 + 602 X_1_10
  + 46 X_1_11 + 638 X_1_12 + 153 X_1_13 + 652 X_1_14 + 188 X_2_0 + 160 X_2_1 + 617 X_2_3 + 842 X_2_4
  + 943 X_2_5 + 730 X_2_6 + 686 X_2_7 + 902 X_2_8 + 760 X_2_9 + 638 X_2_10 + 162 X_2_11 + 581 X_2_12
  + 45 X_2_13 + 707 X_2_14 + 495 X_3_0 + 484 X_3_1 + 617 X_3_2 + 631 X_3_4 + 347 X_3_5 + 857 X_3_6
  + 524 X_3_7 + 694 X_3_8 + 177 X_3_9 + 435 X_3_10 + 518 X_3_11 + 721 X_3_12 + 585 X_3_13 + 398 X_3_14
  + 865 X_4_0 + 824 X_4_1 + 842 X_4_2 + 631 X_4_3 + 607 X_4_5 + 423 X_4_6 + 156 X_4_7 + 67 X_4_8
  + 547 X_4_9 + 227 X_4_10 + 870 X_4_11 + 405 X_4_12 + 797 X_4_13 + 232 X_4_14 + 839 X_5_0 + 823 X_5_1
  + 943 X_5_2 + 347 X_5_3 + 607 X_5_4 + 969 X_5_6 + 583 X_5_7 + 650 X_5_8 + 183 X_5_9 + 519 X_5_10
  + 861 X_5_11 + 872 X_5_12 + 906 X_5_13 + 427 X_5_14 + 843 X_6_0 + 795 X_6_1 + 730 X_6_2 + 857 X_6_3
  + 423 X_6_4 + 969 X_6_5 + 386 X_6_7 + 432 X_6_8 + 852 X_6_9 + 453 X_6_10 + 834 X_6_11 + 158 X_6_12
  + 694 X_6_13 + 542 X_6_14 + 710 X_7_0 + 668 X_7_1 + 686 X_7_2 + 524 X_7_3 + 156 X_7_4 + 583 X_7_5
  + 386 X_7_6 + 220 X_7_8 + 479 X_7_9 + 89 X_7_10 + 714 X_7_11 + 311 X_7_12 + 641 X_7_13 + 157 X_7_14
  + 930 X_8_0 + 888 X_8_1 + 902 X_8_2 + 694 X_8_3 + 67 X_8_4 + 650 X_8_5 + 432 X_8_6 + 220 X_8_7
  + 603 X_8_9 + 294 X_8_10 + 935 X_8_11 + 438 X_8_12 + 857 X_8_13 + 296 X_8_14 + 658 X_9_0 + 642 X_9_1
  + 760 X_9_2 + 177 X_9_3 + 547 X_9_4 + 183 X_9_5 + 852 X_9_6 + 479 X_9_7 + 603 X_9_8 + 400 X_9_10
  + 680 X_9_11 + 737 X_9_12 + 723 X_9_13 + 327 X_9_14 + 642 X_10_0 + 602 X_10_1 + 638 X_10_2 + 435 X_10_3
  + 227 X_10_4 + 519 X_10_5 + 453 X_10_6 + 89 X_10_7 + 294 X_10_8 + 400 X_10_9 + 649 X_10_11 + 354 X_10_12
  + 592 X_10_13 + 101 X_10_14 + 28 X_11_0 + 46 X_11_1 + 162 X_11_2 + 518 X_11_3 + 870 X_11_4 + 861 X_11_5
  + 834 X_11_6 + 714 X_11_7 + 935 X_11_8 + 680 X_11_9 + 649 X_11_10 + 677 X_11_12 + 168 X_11_13 + 698 X_11_14
  + 686 X_12_0 + 638 X_12_1 + 581 X_12_2 + 721 X_12_3 + 405 X_12_4 + 872 X_12_5 + 158 X_12_6 + 311 X_12_7
  + 438 X_12_8 + 737 X_12_9 + 354 X_12_10 + 677 X_12_11 + 542 X_12_13 + 453 X_12_14 + 190 X_13_0 + 153 X_13_1
  + 45 X_13_2 + 585 X_13_3 + 797 X_13_4 + 906 X_13_5 + 694 X_13_6 + 641 X_13_7 + 857 X_13_8 + 723 X_13_9
  + 592 X_13_10 + 168 X_13_11 + 542 X_13_12 + 662 X_13_14 + 688 X_14_0 + 652 X_14_1 + 707 X_14_2 + 398 X_14_3
  + 232 X_14_4 + 427 X_14_5 + 542 X_14_6 + 157 X_14_7 + 296 X_14_8 + 327 X_14_9 + 101 X_14_10 + 698 X_14_11
  + 453 X_14_12 + 662 X_14_13
  <= 3
 obj4:
  + 121 X_0_1 + 732 X_0_2 + 381 X_0_3 + 529 X_0_4 + 939 X_0_5 + 733 X_0_6 + 639 X_0_7 + 705 X_0_8
  + 645 X_0_9 + 264 X_0_10 + 828 X_0_11 + 241 X_0_12 + 820 X_0_13 + 82 X_0_14 + 121 X_1_0 + 646 X_1_2
  + 450 X_1_3 + 624 X_1_4 + 959 X_1_5 + 646 X_1_6 + 605 X_1_7 + 629 X_1_8 + 722 X_1_9 + 211 X_1_10
  + 745 X_1_11 + 134 X_1_12 + 734 X_1_13 + 141 X_1_14 + 732 X_2_0 + 646 X_2_1 + 741 X_2_3 + 946 X_2_4
  + 783 X_2_5 + 16 X_2_6 + 332 X_2_7 + 71 X_2_8 + 918 X_2_9 + 792 X_2_10 + 99 X_2_11 + 651 X_2_12
  + 88 X_2_13 + 675 X_2_14 + 381 X_3_0 + 450 X_3_1 + 741 X_3_2 + 213 X_3_4 + 602 X_3_5 + 750 X_3_6
  + 486 X_3_7 + 684 X_3_8 + 271 X_3_9 + 643 X_3_10 + 813 X_3_11 + 582 X_3_12 + 819 X_3_13 + 314 X_3_14
  + 529 X_4_0 + 624 X_4_1 + 946 X_4_2 + 213 X_4_3 + 647 X_4_5 + 956 X_4_6 + 667 X_4_7 + 886 X_4_8
  + 172 X_4_9 + 791 X_4_10 + 1014 X_4_11 + 758 X_4_12 + 1022 X_4_13 + 483 X_4_14 + 939 X_5_0 + 959 X_5_1
  + 783 X_5_2 + 602 X_5_3 + 647 X_5_4 + 799 X_5_6 + 472 X_5_7 + 713 X_5_8 + 489 X_5_9 + 1170 X_5_10
  + 786 X_5_11 + 1065 X_5_12 + 810 X_5_13 + 857 X_5_14 + 733 X_6_0 + 646 X_6_1 + 16 X_6_2 + 750 X_6_3
  + 956 X_6_4 + 799 X_6_5 + 346 X_6_7 + 87 X_6_8 + 931 X_6_9 + 788 X_6_10 + 103 X_6_11 + 647 X_6_12
  + 88 X_6_13 + 677 X_6_14 + 639 X_7_0 + 605 X_7_1 + 332 X_7_2 + 486 X_7_3 + 667 X_7_4 + 472 X_7_5
  + 346 X_7_6 + 260 X_7_8 + 607 X_7_9 + 805 X_7_10 + 368 X_7_11 + 676 X_7_12 + 384 X_7_13 + 560 X_7_14
  + 705 X_8_0 + 629 X_8_1 + 71 X_8_2 + 684 X_8_3 + 886 X_8_4 + 713 X_8_5 + 87 X_8_6 + 260 X_8_7
  + 852 X_8_9 + 790 X_8_10 + 131 X_8_11 + 649 X_8_12 + 135 X_8_13 + 643 X_8_14 + 645 X_9_0 + 722 X_9_1
  + 918 X_9_2 + 271 X_9_3 + 172 X_9_4 + 489 X_9_5 + 931 X_9_6 + 607 X_9_7 + 852 X_9_8 + 910 X_9_10
  + 972 X_9_11 + 854 X_9_12 + 984 X_9_13 + 584 X_9_14 + 264 X_10_0 + 211 X_10_1 + 792 X_10_2 + 643 X_10_3
  + 791 X_10_4 + 1170 X_10_5 + 788 X_10_6 + 805 X_10_7 + 790 X_10_8 + 910 X_10_9 + 891 X_10_11 + 141 X_10_12
  + 875 X_10_13 + 329 X_10_14 + 828 X_11_0 + 745 X_11_1 + 99 X_11_2 + 813 X_11_3 + 1014 X_11_4 + 786 X_11_5
  + 103 X_11_6 + 368 X_11_7 + 131 X_11_8 + 972 X_11_9 + 891 X_11_10 + 750 X_11_12 + 29 X_11_13 + 768 X_11_14
  + 241 X_12_0 + 134 X_12_1 + 651 X_12_2 + 582 X_12_3 + 758 X_12_4 + 1065 X_12_5 + 647 X_12_6 + 676 X_12_7
  + 649 X_12_8 + 854 X_12_9 + 141 X_12_10 + 750 X_12_11 + 735 X_12_13 + 275 X_12_14 + 820 X_13_0 + 734 X_13_1
  + 88 X_13_2 + 819 X_13_3 + 1022 X_13_4 + 810 X_13_5 + 88 X_13_6 + 384 X_13_7 + 135 X_13_8 + 984 X_13_9
  + 875 X_13_10 + 29 X_13_11 + 735 X_13_12 + 762 X_13_14 + 82 X_14_0 + 141 X_14_1 + 675 X_14_2 + 314 X_14_3
  + 483 X_14_4 + 857 X_14_5 + 677 X_14_6 + 560 X_14_7 + 643 X_14_8 + 584 X_14_9 + 329 X_14_10 + 768 X_14_11
  + 275 X_14_12 + 762 X_14_13
  <= 4
 obj5:
  + 839 X_0_1 + 266 X_0_2 + 361 X_0_3 + 90 X_0_4 + 723 X_0_5 + 221 X_0_6 + 892 X_0_7 + 300 X_0_8
  + 697 X_0_9 + 635 X_0_10 + 760 X_0_11 + 688 X_0_12 + 584 X_0_13 + 148 X_0_14 + 839 X_1_0 + 903 X_1_2
  + 496 X_1_3 + 876 X_1_4 + 660 X_1_5 + 941 X_1_6 + 342 X_1_7 + 858 X_1_8 + 299 X_1_9 + 339 X_1_10
  + 314 X_1_11 + 418 X_1_12 + 596 X_1_13 + 939 X_1_14 + 266 X_2_0 + 903 X_2_1 + 515 X_2_3 + 180 X_2_4
  + 572 X_2_5 + 474 X_2_6 + 1043 X_2_7 + 566 X_2_8 + 845 X_2_9 + 617 X_2_10 + 913 X_2_11 + 627 X_2_12
  + 808 X_2_13 + 164 X_2_14 + 361 X_3_0 + 496 X_3_1 + 515 X_3_2 + 421 X_3_4 + 648 X_3_5 + 446 X_3_6
  + 536 X_3_7 + 379 X_3_8 + 339 X_3_9 + 401 X_3_10 + 405 X_3_11 + 496 X_3_12 + 332 X_3_13 + 488 X_3_14
  + 90 X_4_0 + 876 X_4_1 + 180 X_4_2 + 421 X_4_3 + 686 X_4_5 + 294 X_4_6 + 957 X_4_7 + 388 X_4_8
  + 760 X_4_9 + 642 X_4_10 + 825 X_4_11 + 681 X_4_12 + 669 X_4_13 + 67 X_4_14 + 723 X_5_0 + 660 X_5_1
  + 572 X_5_2 + 648 X_5_3 + 686 X_5_4 + 935 X_5_6 + 957 X_5_7 + 953 X_5_8 + 806 X_5_9 + 338 X_5_10
  + 865 X_5_11 + 242 X_5_12 + 965 X_5_13 + 711 X_5_14 + 221 X_6_0 + 941 X_6_1 + 474 X_6_2 + 446 X_6_3
  + 294 X_6_4 + 935 X_6_5 + 913 X_6_7 + 146 X_6_8 + 736 X_6_9 + 801 X_6_10 + 789 X_6_11 + 871 X_6_12
  + 533 X_6_13 + 322 X_6_14 + 892 X_7_0 + 342 X_7_1 + 1043 X_7_2 + 536 X_7_3 + 957 X_7_4 + 957 X_7_5
  + 913 X_7_6 + 790 X_7_8 + 198 X_7_9 + 619 X_7_10 + 131 X_7_11 + 720 X_7_12 + 418 X_7_13 + 1024 X_7_14
  + 300 X_8_0 + 858 X_8_1 + 566 X_8_2 + 379 X_8_3 + 388 X_8_4 + 953 X_8_5 + 146 X_8_6 + 790 X_8_7
  + 624 X_8_9 + 769 X_8_10 + 671 X_8_11 + 852 X_8_12 + 394 X_8_13 + 433 X_8_14 + 697 X_9_0 + 299 X_9_1
  + 845 X_9_2 + 339 X_9_3 + 760 X_9_4 + 806 X_9_5 + 736 X_9_6 + 198 X_9_7 + 624 X_9_8 + 472 X_9_10
  + 68 X_9_11 + 580 X_9_12 + 302 X_9_13 + 827 X_9_14 + 635 X_10_0 + 339 X_10_1 + 617 X_10_2 + 401 X_10_3
  + 642 X_10_4 + 338 X_10_5 + 801 X_10_6 + 619 X_10_7 + 769 X_10_8 + 472 X_10_9 + 528 X_10_11 + 109 X_10_12
  + 671 X_10_13 + 694 X_10_14 + 760 X_11_0 + 314 X_11_1 + 913 X_11_2 + 405 X_11_3 + 825 X_11_4 + 865 X_11_5
  + 789 X_11_6 + 131 X_11_7 + 671 X_11_8 + 68 X_11_9 + 528 X_11_10 + 634 X_11_12 + 321 X_11_13 + 892 X_11_14
  + 688 X_12_0 + 418 X_12_1 + 627 X_12_2 + 496 X_12_3 + 681 X_12_4 + 242 X_12_5 + 871 X_12_6 + 720 X_12_7
  + 852 X_12_8 + 580 X_12_9 + 109 X_12_10 + 634 X_12_11 + 779 X_12_13 + 726 X_12_14 + 584 X_13_0 + 596 X_13_1
  + 808 X_13_2 + 332 X_13_3 + 669 X_13_4 + 965 X_13_5 + 533 X_13_6 + 418 X_13_7 + 394 X_13_8 + 302 X_13_9
  + 671 X_13_10 + 321 X_13_11 + 779 X_13_12 + 732 X_13_14 + 148 X_14_0 + 939 X_14_1 + 164 X_14_2 + 488 X_14_3
  + 67 X_14_4 + 711 X_14_5 + 322 X_14_6 + 1024 X_14_7 + 433 X_14_8 + 827 X_14_9 + 694 X_14_10 + 892 X_14_11
  + 726 X_14_12 + 732 X_14_13
  <= 5
 obj6:
  + 156 X_0_1 + 692 X_0_2 + 479 X_0_3 + 750 X_0_4 + 805 X_0_5 + 650 X_0_6 + 837 X_0_7 + 664 X_0_8
  + 998 X_0_9 + 500 X_0_10 + 402 X_0_11 + 838 X_0_12 + 672 X_0_13 + 660 X_0_14 + 156 X_1_0 + 649 X_1_2
  + 324 X_1_3 + 599 X_1_4 + 683 X_1_5 + 554 X_1_6 + 695 X_1_7 + 526 X_1_8 + 847 X_1_9 + 416 X_1_10
  + 247 X_1_11 + 771 X_1_12 + 535 X_1_13 + 524 X_1_14 + 692 X_2_0 + 649 X_2_1 + 625 X_2_3 + 651 X_2_4
  + 434 X_2_5 + 253 X_2_6 + 607 X_2_7 + 981 X_2_8 + 807 X_2_9 + 267 X_2_10 + 688 X_2_11 + 180 X_2_12
  + 490 X_2_13 + 483 X_2_14 + 479 X_3_0 + 324 X_3_1 + 625 X_3_2 + 283 X_3_4 + 449 X_3_5 + 418 X_3_6
  + 398 X_3_7 + 355 X_3_8 + 527 X_3_9 + 360 X_3_10 + 114 X_3_11 + 674 X_3_12 + 271 X_3_13 + 264 X_3_14
  + 750 X_4_0 + 599 X_4_1 + 651 X_4_2 + 283 X_4_3 + 286 X_4_5 + 397 X_4_6 + 139 X_4_7 + 481 X_4_8
  + 248 X_4_9 + 447 X_4_10 + 391 X_4_11 + 620 X_4_12 + 160 X_4_13 + 168 X_4_14 + 805 X_5_0 + 683 X_5_1
  + 434 X_5_2 + 449 X_5_3 + 286 X_5_4 + 209 X_5_6 + 188 X_5_7 + 745 X_5_8 + 376 X_5_9 + 343 X_5_10
  + 559 X_5_11 + 352 X_5_12 + 180 X_5_13 + 185 X_5_14 + 650 X_6_0 + 554 X_6_1 + 253 X_6_2 + 418 X_6_3
  + 397 X_6_4 + 209 X_6_5 + 361 X_6_7 + 765 X_6_8 + 563 X_6_9 + 153 X_6_10 + 505 X_6_11 + 256 X_6_12
  + 237 X_6_13 + 231 X_6_14 + 837 X_7_0 + 695 X_7_1 + 607 X_7_2 + 398 X_7_3 + 139 X_7_4 + 188 X_7_5
  + 361 X_7_6 + 620 X_7_8 + 203 X_7_9 + 455 X_7_10 + 511 X_7_11 + 541 X_7_12 + 171 X_7_13 + 183 X_7_14
  + 664 X_8_0 + 526 X_8_1 + 981 X_8_2 + 355 X_8_3 + 481 X_8_4 + 745 X_8_5 + 765 X_8_6 + 620 X_8_7
  + 641 X_8_9 + 716 X_8_10 + 318 X_8_11 + 1020 X_8_12 + 571 X_8_13 + 569 X_8_14 + 998 X_9_0 + 847 X_9_1
  + 807 X_9_2 + 527 X_9_3 + 248 X_9_4 + 376 X_9_5 + 563 X_9_6 + 203 X_9_7 + 641 X_9_8 + 655 X_9_10
  + 631 X_9_11 + 724 X_9_12 + 363 X_9_13 + 375 X_9_14 + 500 X_10_0 + 416 X_10_1 + 267 X_10_2 + 360 X_10_3
  + 447 X_10_4 + 343 X_10_5 + 153 X_10_6 + 455 X_10_7 + 716 X_10_8 + 655 X_10_9 + 420 X_10_11 + 357 X_10_12
  + 295 X_10_13 + 284 X_10_14 + 402 X_11_0 + 247 X_11_1 + 688 X_11_2 + 114 X_11_3 + 391 X_11_4 + 559 X_11_5
  + 505 X_11_6 + 511 X_11_7 + 318 X_11_8 + 631 X_11_9 + 420 X_11_10 + 758 X_11_12 + 383 X_11_13 + 375 X_11_14
  + 838 X_12_0 + 771 X_12_1 + 180 X_12_2 + 674 X_12_3 + 620 X_12_4 + 352 X_12_5 + 256 X_12_6 + 541 X_12_7
  + 1020 X_12_8 + 724 X_12_9 + 357 X_12_10 + 758 X_12_11 + 471 X_12_13 + 468 X_12_14 + 672 X_13_0 + 535 X_13_1
  + 490 X_13_2 + 271 X_13_3 + 160 X_13_4 + 180 X_13_5 + 237 X_13_6 + 171 X_13_7 + 571 X_13_8 + 363 X_13_9
  + 295 X_13_10 + 383 X_13_11 + 471 X_13_12 + 12 X_13_14 + 660 X_14_0 + 524 X_14_1 + 483 X_14_2 + 264 X_14_3
  + 168 X_14_4 + 185 X_14_5 + 231 X_14_6 + 183 X_14_7 + 569 X_14_8 + 375 X_14_9 + 284 X_14_10 + 375 X_14_11
  + 468 X_14_12 + 12 X_14_13
  <= 6
 obj7:
  + 164 X_0_1 + 424 X_0_2 + 677 X_0_3 + 231 X_0_4 + 441 X_0_5 + 258 X_0_6 + 643 X_0_7 + 377 X_0_8
  + 270 X_0_9 + 321 X_0_10 + 453 X_0_11 + 422 X_0_12 + 572 X_0_13 + 585 X_0_14 + 164 X_1_0 + 583 X_1_2
  + 634 X_1_3 + 395 X_1_4 + 286 X_1_5 + 340 X_1_6 + 614 X_1_7 + 359 X_1_8 + 435 X_1_9 + 450 X_1_10
  + 399 X_1_11 + 479 X_1_12 + 671 X_1_13 + 655 X_1_14 + 424 X_2_0 + 583 X_2_1 + 998 X_2_3 + 198 X_2_4
  + 865 X_2_5 + 362 X_2_6 + 948 X_2_7 + 712 X_2_8 + 171 X_2_9 + 398 X_2_10 + 814 X_2_11 + 632 X_2_12
  + 623 X_2_13 + 713 X_2_14 + 677 X_3_0 + 634 X_3_1 + 998 X_3_2 + 817 X_3_4 + 531 X_3_5 + 934 X_3_6
  + 62 X_3_7 + 301 X_3_8 + 830 X_3_9 + 618 X_3_10 + 234 X_3_11 + 389 X_3_12 + 563 X_3_13 + 442 X_3_14
  + 231 X_4_0 + 395 X_4_1 + 198 X_4_2 + 817 X_4_3 + 670 X_4_5 + 272 X_4_6 + 770 X_4_7 + 523 X_4_8
  + 43 X_4_9 + 263 X_4_10 + 622 X_4_11 + 473 X_4_12 + 526 X_4_13 + 589 X_4_14 + 441 X_5_0 + 286 X_5_1
  + 865 X_5_2 + 531 X_5_3 + 670 X_5_4 + 616 X_5_6 + 540 X_5_7 + 381 X_5_8 + 707 X_5_9 + 653 X_5_10
  + 336 X_5_11 + 575 X_5_12 + 805 X_5_13 + 744 X_5_14 + 258 X_6_0 + 340 X_6_1 + 362 X_6_2 + 934 X_6_3
  + 272 X_6_4 + 616 X_6_5 + 901 X_6_7 + 635 X_6_8 + 309 X_6_9 + 506 X_6_10 + 707 X_6_11 + 665 X_6_12
  + 775 X_6_13 + 814 X_6_14 + 643 X_7_0 + 614 X_7_1 + 948 X_7_2 + 62 X_7_3 + 770 X_7_4 + 540 X_7_5
  + 901 X_7_6 + 266 X_7_8 + 781 X_7_9 + 563 X_7_10 + 220 X_7_11 + 331 X_7_12 + 501 X_7_13 + 380 X_7_14
  + 377 X_8_0 + 359 X_8_1 + 712 X_8_2 + 301 X_8_3 + 523 X_8_4 + 381 X_8_5 + 635 X_8_6 + 266 X_8_7
  + 540 X_8_9 + 364 X_8_10 + 109 X_8_11 + 203 X_8_12 + 435 X_8_13 + 363 X_8_14 + 270 X_9_0 + 435 X_9_1
  + 171 X_9_2 + 830 X_9_3 + 43 X_9_4 + 707 X_9_5 + 309 X_9_6 + 781 X_9_7 + 540 X_9_8 + 253 X_9_10
  + 642 X_9_11 + 475 X_9_12 + 508 X_9_13 + 578 X_9_14 + 321 X_10_0 + 450 X_10_1 + 398 X_10_2 + 618 X_10_3
  + 263 X_10_4 + 653 X_10_5 + 506 X_10_6 + 563 X_10_7 + 364 X_10_8 + 253 X_10_9 + 474 X_10_11 + 236 X_10_12
  + 269 X_10_13 + 326 X_10_14 + 453 X_11_0 + 399 X_11_1 + 814 X_11_2 + 234 X_11_3 + 622 X_11_4 + 336 X_11_5
  + 707 X_11_6 + 220 X_11_7 + 109 X_11_8 + 642 X_11_9 + 474 X_11_10 + 297 X_11_12 + 525 X_11_13 + 436 X_11_14
  + 422 X_12_0 + 479 X_12_1 + 632 X_12_2 + 389 X_12_3 + 473 X_12_4 + 575 X_12_5 + 665 X_12_6 + 331 X_12_7
  + 203 X_12_8 + 475 X_12_9 + 236 X_12_10 + 297 X_12_11 + 232 X_12_13 + 177 X_12_14 + 572 X_13_0 + 671 X_13_1
  + 623 X_13_2 + 563 X_13_3 + 526 X_13_4 + 805 X_13_5 + 775 X_13_6 + 501 X_13_7 + 435 X_13_8 + 508 X_13_9
  + 269 X_13_10 + 525 X_13_11 + 232 X_13_12 + 127 X_13_14 + 585 X_14_0 + 655 X_14_1 + 713 X_14_2 + 442 X_14_3
  + 589 X_14_4 + 744 X_14_5 + 814 X_14_6 + 380 X_14_7 + 363 X_14_8 + 578 X_14_9 + 326 X_14_10 + 436 X_14_11
  + 177 X_14_12 + 127 X_14_13
  <= 7
Bounds
 1 <= U1 <= 14
 1 <= U2 <= 14
 1 <= U3 <= 14
 1 <= U4 <= 14
 1 <= U5 <= 14
 1 <= U6 <= 14
 1 <= U7 <= 14
 1 <= U8 <= 14
 1 <= U9 <= 14
 1 <= U10 <= 14
 1 <= U11 <= 14
 1 <= U12 <= 14
 1 <= U13 <= 14
 1 <= U14 <= 14
Binary
 X_0_1
 X_0_2
 X_0_3
 X_0_4
 X_0_5
 X_0_6
 X_0_7
 X_0_8
 X_0_9
 X_0_10
 X_0_11
 X_0_12
 X_0_13
 X_0_14
 X_1_0
 X_1_2
 X_1_3
 X_1_4
 X_1_5
 X_1_6
 X_1_7
 X_1_8
 X_1_9
 X_1_10
 X_1_11
 X_1_12
 X_1_13
 X_1_14
 X_2_0
 X_2_1
 X_2_3
 X_2_4
 X_2_5
 X_2_6
 X_2_7
 X_2_8
 X_2_9
 X_2_10
 X_2_11
 X_2_12
 X_2_13
 X_2_14
 X_3_0
 X_3_1
 X_3_2
 X_3_4
 X_3_5
 X_3_6
 X_3_7
 X_3_8
 X_3_9
 X_3_10
 X_3_11
 X_3_12
 X_3_13
 X_3_14
 X_4_0
 X_4_1
 X_4_2
 X_4_3
 X_4_5
 X_4_6
 X_4_7
 X_4_8
 X_4_9
 X_4_10
 X_4_11
 X_4_12
 X_4_13
 X_4_14
 X_5_0
 X_5_1
 X_5_2
 X_5_3
 X_5_4
 X_5_6
 X_5_7
 X_5_8
 X_5_9
 X_5_10
 X_5_11
 X_5_12
 X_5_13
 X_5_14
 X_6_0
 X_6_1
 X_6_2
 X_6_3
 X_6_4
 X_6_5
 X_6_7
 X_6_8
 X_6_9
 X_6_10
 X_6_11
 X_6_12
 X_6_13
 X_6_14
 X_7_0
 X_7_1
 X_7_2
 X_7_3
 X_7_4
 X_7_5
 X_7_6
 X_7_8
 X_7_9
 X_7_10
 X_7_11
 X_7_12
 X_7_13
 X_7_14
 X_8_0
 X_8_1
 X_8_2
 X_8_3
 X_8_4
 X_8_5
 X_8_6
 X_8_7
 X_8_9
 X_8_10
 X_8_11
 X_8_12
 X_8_13
 X_8_14
 X_9_0
 X_9_1
 X_9_2
 X_9_3
 X_9_4
 X_9_5
 X_9_6
 X_9_7
 X_9_8
 X_9_10
 X_9_11
 X_9_12
 X_9_13
 X_9_14
 X_10_0
 X_10_1
 X_10_2
 X_10_3
 X_10_4
 X_10_5
 X_10_6
 X_10_7
 X_10_8
 X_10_9
 X_10_11
 X_10_12
 X_10_13
 X_10_14
 X_11_0
 X_11_1
 X_11_2
 X_11_3
 X_11_4
 X_11_5
 X_11_6
 X_11_7
 X_11_8
 X_11_9
 X_11_10
 X_11_12
 X_11_13
 X_11_14
 X_12_0
 X_12_1
 X_12_2
 X_12_3
 X_12_4
 X_12_5
 X_12_6
 X_12_7
 X_12_8
 X_12_9
 X_12_10
 X_12_11
 X_12_13
 X_12_14
 X_13_0
 X_13_1
 X_13_2
 X_13_3
 X_13_4
 X_13_5
 X_13_6
 X_13_7
 X_13_8
 X_13_9
 X_13_10
 X_13_11
 X_13_12
 X_13_14
 X_14_0
 X_14_1
 X_14_2
 X_14_3
 X_14_4
 X_14_5
 X_14_6
 X_14_7
 X_14_8
 X_14_9
 X_14_10
 X_14_11
 X_14_12
 X_14_13
End
